0000000000000000
0000000000000000
0000000000000000
0000101011100000
0000011111101000
0000000000011000
0000000000001000
0000000000011010
0000000000000110
0000000000000010
0000000000001010
0000001011001100
0000011101010000
0000000000000000
0000000000000000
0000000000000000
